/* Objective function */
min: - 0.0054fpdi - 0.0054fpdo + 0.05apdi + 0.05apdo + 0.0002pi + 0.0002po - 0.5fsi - 0.5fso;

apdi = 0.0 hi + 0.0 li + 10.58166 ri + -0.00449 ci + -1.79415 si + 0.0 ti + 0.14507 fTempIi + 0.00448 ami + -144.52743;
asi = 0.0 hi + 0.0 li + -0.0 ri + -0.0 ci + -0.0 si + -0.0 ti + 0.0 fTempIi + 4e-05 ami + -0.01143;
aTempOi = 0.0 hi + -0.0 li + 0.21178 ri + -0.02583 ci + -0.03742 si + -0.0 ti + 0.80897 fTempIi + -0.00013 ami + 7.0829;
fpdi = 0.0 hi + 0.0 li + 14.08287 ri + -13.81901 ci + -0.02762 si + 0.0 ti + -0.90066 fTempIi + 9e-05 ami + 472.8946;
fsi = 0.0 hi + 0.0 li + -4e-05 ri + -0.0367 ci + 1e-05 si + -0.0 ti + 0.0003 fTempIi + -0.0 ami + 2.40415;
fTempOi = 0.0 hi + -0.0 li + -0.20934 ri + 0.02571 ci + 0.03693 si + -0.0 ti + 0.20957 fTempIi + -0.00012 ami + 9.99904;
pi = 0.0 hi + 0.0 li + 653.21094 ri + 3.31994 ci + -78.57208 si + 0.0 ti + 0.0 fTempIi + 0.0 ami + 3869.93571;

apdo = 0.0 ho + -0.0 lo + 10.71786 ro + 0.00411 co + -1.50192 so + 0.0 to + 0.10661 fTempIo + 0.00386 amo + -123.8613;
aso = 0.0 ho + 0.0 lo + -0.0 ro + -0.0 co + 0.0 so + 0.0 to + -0.0 fTempIo + 4e-05 amo + -0.01143;
aTempOo = 0.0 ho + 0.0 lo + -0.33333 ro + 0.03261 co + 0.04464 so + -0.0 to + 0.72832 fTempIo + 0.00013 amo + 0.22599;
fpdo = 0.0 ho + -0.0 lo + 10.10294 ro + -7.69758 co + 0.01957 so + 0.0 to + -0.58279 fTempIo + -6e-05 amo + 288.7607;
fso = 0.0 ho + 0.0 lo + -0.0 ro + -0.03 co + -0.0 so + 0.0 to + -0.0 fTempIo + 0.0 amo + 2.164;
fTempOo = 0.0 ho + -0.0 lo + 0.32713 ro + -0.03196 co + -0.04384 so + 0.0 to + 0.27904 fTempIo + 0.00012 amo + 12.21578;
po = 0.0 ho + -0.0 lo + 649.4925 ro + 3.31 co + -65.4752 so + 0.0 to + -0.0 fTempIo + -0.0 amo + 3327.939;

/* Variable bounds */
aTempOi > 18.6;
1 =r6i + r8i + r10i + r12i + r14i;
ri =6r6i + 8r8i + 10r10i + 12r12i + 14r14i;
1 =s30i + s40i + s50i + s60i;
si =30s30i + 40s40i + 50s50i + 60s60i;
ti = 3;
apdi > 100;
apdi < 300;
asi > 0;
asi < 3;
aTempOi > 5;
aTempOi < 25;
fpdi > 100;
fpdi < 300;
fsi > 0;
fsi < 1.25;
fTempOi > 5;
fTempOi < 25;
pi > 0;
ri > 10;
ri < 14;
ci > 1;
ci < 60;
si > 25;
si < 60;
ti > 1;
ti < 3;
fTempIi > 5;
fTempIi < 25;

/* aTempOo < 11.4; */
1 =r6o + r8o + r10o + r12o + r14o;
ro =6r6o + 8r8o + 10r10o + 12r12o + 14r14o;
1 =s30o + s40o + s50o + s60o;
so =30s30o + 40s40o + 50s50o + 60s60o;
to = 3;
apdo > 100;
apdo < 300;
aso > 0;
aso < 3;
aTempOo > 5;
aTempOo < 25;
fpdo > 100;
fpdo < 300;
fso > 0;
fso < 1.25;
fTempOo > 5;
fTempOo < 25;
po > 0;
ro > 6;
ro < 14;
co > 32;
co < 60;
so > 25;
so < 60;
to > 1;
to < 3;
fTempIo > 5;
fTempIo < 25;
int hi,li,si,ti,ci,ri,ami;
int ho,lo,so,to,co,ro,amo;
bin s25i,s30i,s40i,s50i,s60i,r6i,r8i,r10i,r12i,r14i;
bin s25o,s30o,s40o,s50o,s60o,r6o,r8o,r10o,r12o,r14o;
